(set-option :produce-models true); benchmark generated from python API
(set-info :status unknown)
(declare-fun l_0_0_5 () Real)
(declare-fun l_0_0_4 () Real)
(declare-fun l_0_0_3 () Real)
(declare-fun l_0_0_2 () Real)
(declare-fun _a_0_ () Real)
(declare-fun l_0_0_1 () Real)
(declare-fun _a_1_ () Real)
(declare-fun l_0_0_6 () Real)
(declare-fun l_0_1_9 () Real)
(declare-fun l_0_1_8 () Real)
(declare-fun l_0_1_6 () Real)
(declare-fun l_0_1_5 () Real)
(declare-fun l_0_1_3 () Real)
(declare-fun l_0_1_2 () Real)
(declare-fun l_0_1_7 () Real)
(declare-fun l_0_1_4 () Real)
(declare-fun l_0_1_1 () Real)
(declare-fun l_0_2_8 () Real)
(declare-fun l_0_2_7 () Real)
(declare-fun l_0_2_6 () Real)
(declare-fun l_0_2_5 () Real)
(declare-fun l_0_2_4 () Real)
(declare-fun l_0_2_2 () Real)
(declare-fun l_0_2_1 () Real)
(declare-fun l_0_2_3 () Real)
(declare-fun l_0_2_9 () Real)
(assert
 (let ((?x37 (- (- _a_0_ (* (* 80.0 l_0_0_2) l_0_0_2)) (* (* 80.0 l_0_0_3) l_0_0_3))))
 (= (- ?x37 (* (* 2.0 l_0_0_4) l_0_0_5)) 0.0)))
(assert
 (let ((?x90 (* l_0_0_4 l_0_0_4)))
 (let ((?x70 (* l_0_0_3 l_0_0_3)))
 (let ((?x62 (* l_0_0_2 l_0_0_2)))
 (let ((?x91 (- (+ (+ (- _a_1_ (* (* 160.0 l_0_0_1) l_0_0_2)) ?x62) ?x70) ?x90)))
 (= ?x91 0.0))))))
(assert
 (= (+ (- (* (- l_0_0_5) l_0_0_5) (* l_0_0_6 l_0_0_6)) 1.0) 0.0))
(assert
 (let ((?x124 (- (* (* 2.0 l_0_0_1) l_0_0_2) (* (* 80.0 l_0_0_1) l_0_0_1))))
 (= ?x124 0.0)))
(assert
 (let ((?x127 (* l_0_0_1 l_0_0_1)))
 (= ?x127 0.0)))
(assert
 (>= l_0_0_1 0.0))
(assert
 (>= l_0_0_3 0.0))
(assert
 (>= l_0_0_4 0.0))
(assert
 (>= l_0_0_6 0.0))
(assert
 (let ((?x153 (* l_0_1_9 l_0_1_9)))
 (let ((?x151 (* l_0_1_8 l_0_1_8)))
 (let ((?x148 (* l_0_1_6 l_0_1_6)))
 (let ((?x149 (* 82.0 ?x148)))
 (let ((?x144 (* l_0_1_5 l_0_1_5)))
 (let ((?x146 (* 82.0 ?x144)))
 (let ((?x143 (- (* (* (- 1.0) l_0_1_2) l_0_1_2) (* (* 1.0 l_0_1_3) l_0_1_3))))
 (= (- (- (- (+ (+ ?x143 ?x146) ?x149) ?x151) ?x153) 790.0) 0.0)))))))))
(assert
 (let ((?x148 (* l_0_1_6 l_0_1_6)))
 (let ((?x188 (* 81.0 ?x148)))
 (let ((?x144 (* l_0_1_5 l_0_1_5)))
 (let ((?x186 (* 81.0 ?x144)))
 (let ((?x180 (- (* (- _a_0_) (+ (* l_0_1_2 l_0_1_2) (* l_0_1_3 l_0_1_3))) (* (* 2.0 l_0_1_1) l_0_1_2))))
 (let ((?x192 (- (+ (+ (+ ?x180 (* (* 164.0 l_0_1_4) l_0_1_5)) ?x186) ?x188) (* (* 2.0 l_0_1_7) l_0_1_8))))
 (= (- ?x192 69.0) 0.0))))))))
(assert
 (let ((?x239 (* l_0_1_7 l_0_1_7)))
 (let ((?x148 (* l_0_1_6 l_0_1_6)))
 (let ((?x144 (* l_0_1_5 l_0_1_5)))
 (let ((?x234 (* l_0_1_4 l_0_1_4)))
 (let ((?x235 (* 82.0 ?x234)))
 (let ((?x226 (- (* (* (* (- 2.0) _a_0_) l_0_1_1) l_0_1_2) (* _a_1_ (+ (* l_0_1_2 l_0_1_2) (* l_0_1_3 l_0_1_3))))))
 (let ((?x233 (+ (- ?x226 (* (* 1.0 l_0_1_1) l_0_1_1)) (* (* 162.0 l_0_1_4) l_0_1_5))))
 (= (+ (- (- (- (+ ?x233 ?x235) ?x144) ?x148) ?x239) 1.0) 0.0)))))))))
(assert
 (let ((?x284 (- (* (* (- _a_0_) l_0_1_1) l_0_1_1) (* (* (* 2.0 _a_1_) l_0_1_1) l_0_1_2))))
 (let ((?x289 (+ (- ?x284 (* (* 2.0 l_0_1_4) l_0_1_5)) (* 81.0 (* l_0_1_4 l_0_1_4)))))
 (= ?x289 0.0))))
(assert
 (= (- (* (* (- _a_1_) l_0_1_1) l_0_1_1) (* l_0_1_4 l_0_1_4)) 0.0))
(assert
 (>= l_0_1_1 0.0))
(assert
 (>= l_0_1_3 0.0))
(assert
 (>= l_0_1_4 0.0))
(assert
 (>= l_0_1_6 0.0))
(assert
 (>= l_0_1_7 0.0))
(assert
 (>= l_0_1_9 0.0))
(assert
 (let ((?x331 (+ (* (- _a_0_) (+ (* l_0_2_2 l_0_2_2) (* l_0_2_3 l_0_2_3))) _a_0_)))
 (let ((?x339 (- (- (+ ?x331 (* 1.0 _a_1_)) (* (* 2.0 l_0_2_1) l_0_2_2)) (* (* 164.0 l_0_2_4) l_0_2_5))))
 (let ((?x345 (- (- ?x339 (* (* 81.0 l_0_2_5) l_0_2_5)) (* (* 81.0 l_0_2_6) l_0_2_6))))
 (= (- ?x345 (* (* 2.0 l_0_2_7) l_0_2_8)) 0.0)))))
(assert
 (let ((?x407 (* l_0_2_9 l_0_2_9)))
 (let ((?x405 (* l_0_2_8 l_0_2_8)))
 (let ((?x391 (* (/ 1.0 4.0) _a_1_)))
 (let ((?x389 (* (/ 1.0 2.0) _a_0_)))
 (let ((?x392 (+ ?x389 ?x391)))
 (let ((?x398 (- (- ?x392 (* (* 1.0 l_0_2_2) l_0_2_2)) (* (* 1.0 l_0_2_3) l_0_2_3))))
 (let ((?x404 (- (- ?x398 (* (* 82.0 l_0_2_5) l_0_2_5)) (* (* 82.0 l_0_2_6) l_0_2_6))))
 (= (+ (- (- ?x404 ?x405) ?x407) 1.0) 0.0)))))))))
(assert
 (let ((?x455 (* l_0_2_7 l_0_2_7)))
 (let ((?x375 (* l_0_2_6 l_0_2_6)))
 (let ((?x369 (* l_0_2_5 l_0_2_5)))
 (let ((?x442 (* (/ 9997291.0 10000000.0) _a_1_)))
 (let ((?x440 (- (- (* (* (* (- 2.0) _a_0_) l_0_2_1) l_0_2_2) (* (/ 2709.0 10000000.0) _a_0_)) (* _a_1_ (+ (* l_0_2_2 l_0_2_2) (* l_0_2_3 l_0_2_3))))))
 (let ((?x449 (- (- (+ ?x440 ?x442) (* (* 1.0 l_0_2_1) l_0_2_1)) (* (* 162.0 l_0_2_4) l_0_2_5))))
 (let ((?x456 (- (+ (+ (- ?x449 (* (* 82.0 l_0_2_4) l_0_2_4)) ?x369) ?x375) ?x455)))
 (= ?x456 0.0)))))))))
(assert
 (let ((?x510 (* (/ 2709.0 5000000.0) _a_1_)))
 (let ((?x508 (- (* (* (- _a_0_) l_0_2_1) l_0_2_1) (* (* (* 2.0 _a_1_) l_0_2_1) l_0_2_2))))
 (let ((?x517 (- (+ (- ?x508 ?x510) (* (* 2.0 l_0_2_4) l_0_2_5)) (* (* 81.0 l_0_2_4) l_0_2_4))))
 (= ?x517 0.0)))))
(assert
 (let ((?x487 (* l_0_2_4 l_0_2_4)))
 (let ((?x547 (+ (+ (* (* (- _a_1_) l_0_2_1) l_0_2_1) (* (/ 7338681.0 100000000000000.0) _a_1_)) ?x487)))
 (= ?x547 0.0))))
(assert
 (>= l_0_2_1 0.0))
(assert
 (>= l_0_2_3 0.0))
(assert
 (>= l_0_2_4 0.0))
(assert
 (>= l_0_2_6 0.0))
(assert
 (>= l_0_2_7 0.0))
(assert
 (>= l_0_2_9 0.0))
(check-sat)
(get-model)